experiment/data/lkh-res/Vrp-Set-X-n344/Vrp-Set-X-n344-lkh/0.lkh1.vrp
NAME : 0
COMMENT : CVRP Instance
TYPE : CVRP
DIMENSION : 344
EDGE_WEIGHT_TYPE : EUC_2D
CAPACITY : 61
NODE_COORD_SECTION
1	50000	50000
2	61500	19000
3	89000	20000
4	98300	68400
5	87400	11200
6	90600	18600
7	80100	27800
8	82300	44600
9	24200	54400
10	50500	21000
11	76700	76600
12	69800	30500
13	70700	51100
14	1000	96800
15	17200	1300
16	5700	41400
17	31700	37300
18	84900	68000
19	85400	1200
20	42900	68800
21	82200	37800
22	77400	58400
23	60100	89500
24	92100	30900
25	17600	16500
26	36800	43200
27	65600	43000
28	71500	22500
29	3500	26400
30	54400	99400
31	21400	53300
32	57300	65000
33	25900	59500
34	3800	55000
35	92500	75500
36	33700	56200
37	41200	96900
38	91900	40200
39	39100	79200
40	42400	20600
41	25900	58800
42	7900	36400
43	66700	97800
44	33200	59300
45	27000	54400
46	74500	26700
47	76000	78600
48	13400	99800
49	11700	32000
50	96600	45800
51	13300	33400
52	98600	46200
53	17600	29000
54	12000	29600
55	20100	87800
56	61500	29300
57	2400	21700
58	41800	66200
59	83100	31400
60	83200	56400
61	94500	75800
62	39400	44600
63	84300	68000
64	2400	61300
65	42200	95600
66	41100	5800
67	51200	65500
68	65700	54400
69	64400	74800
70	16200	92400
71	6400	5700
72	77300	72700
73	100	46100
74	16700	98100
75	18000	34600
76	49500	29500
77	58900	31100
78	27300	18600
79	49300	12100
80	52200	65300
81	70400	90900
82	15700	900
83	9000	62500
84	63200	96400
85	34700	75000
86	82500	94000
87	900	23700
88	18100	66200
89	72200	72400
90	10600	97800
91	74600	98100
92	60300	94400
93	73400	61200
94	16300	14200
95	74300	1600
96	91000	27200
97	49500	58400
98	98500	96800
99	90100	14900
100	19200	87800
101	81700	70000
102	88800	100
103	7000	32300
104	11900	25500
105	71600	41300
106	1700	30900
107	55800	12200
108	43600	66300
109	91200	6400
110	84600	97300
111	62200	27100
112	46900	62900
113	32600	38800
114	67500	58700
115	97400	13500
116	62000	44300
117	58500	600
118	13400	76400
119	27600	22200
120	86900	66300
121	51700	93500
122	68100	63100
123	65000	67900
124	27700	61200
125	65400	7600
126	10100	33200
127	16200	79200
128	48000	87800
129	73000	72800
130	800	52500
131	34000	48900
132	19400	81500
133	18300	7500
134	34500	88400
135	66000	84100
136	71200	4200
137	65500	69500
138	88000	60000
139	5000	55500
140	40600	94600
141	49000	5300
142	71200	87800
143	39600	48400
144	22500	17600
145	23500	900
146	76800	43800
147	3300	11600
148	19700	14900
149	14100	31200
150	30100	1800
151	25100	8300
152	93000	54900
153	66200	9900
154	39400	87200
155	79300	65900
156	10400	82100
157	95300	40100
158	45900	26400
159	35300	25400
160	98600	68000
161	37500	63900
162	73300	98200
163	8200	92300
164	91200	60400
165	99200	12300
166	78400	82300
167	8200	85900
168	80300	33800
169	6700	55500
170	500	10200
171	90700	89600
172	65400	39300
173	57300	52700
174	12200	15000
175	6500	900
176	4100	54500
177	68000	2200
178	68500	81400
179	52000	81700
180	57500	87200
181	23200	83600
182	15000	8200
183	73400	77900
184	55500	1300
185	77400	84800
186	10100	44000
187	4400	14100
188	57300	60900
189	55200	46300
190	43600	77300
191	49700	54700
192	51300	86100
193	76700	79400
194	46100	80400
195	9500	19200
196	23600	12100
197	67800	79600
198	71100	63700
199	68700	700
200	50700	85500
201	10500	8200
202	55000	65800
203	59500	50700
204	60400	72600
205	74500	74600
206	60800	51900
207	55100	75000
208	43900	94300
209	56200	49600
210	37900	46400
211	61800	84800
212	56500	51900
213	51400	54800
214	51200	43500
215	5500	55600
216	48600	76200
217	4200	3100
218	56100	79700
219	58100	51000
220	58600	88800
221	41800	79100
222	11200	15700
223	13600	18900
224	58900	9200
225	4100	50100
226	38300	68600
227	41900	68700
228	46600	83700
229	14400	8500
230	44500	53800
231	63700	4600
232	21900	3800
233	2700	56400
234	71000	87500
235	5800	51800
236	9200	29300
237	84200	89500
238	73100	73700
239	60600	33200
240	60600	70400
241	78900	87900
242	60900	36800
243	50800	81800
244	7200	4600
245	13700	7000
246	11300	11300
247	4100	39900
248	11200	8200
249	67800	74300
250	21400	61900
251	47100	40500
252	9200	16300
253	80400	75300
254	91400	23400
255	17200	32800
256	12900	16100
257	6400	58000
258	66700	72700
259	49600	80600
260	12100	15000
261	69800	5000
262	61300	10600
263	58300	67500
264	46600	67500
265	31300	77500
266	3000	55500
267	13700	26600
268	66800	60400
269	70500	74700
270	72200	98100
271	64900	80800
272	16300	24400
273	56500	37000
274	49900	84100
275	4600	19400
276	51300	53000
277	63800	83200
278	75200	79700
279	13200	1600
280	57000	300
281	70200	82000
282	46200	68900
283	42600	81800
284	50000	88700
285	48900	72500
286	19800	2600
287	900	87500
288	2900	58800
289	64000	600
290	62400	76200
291	18000	26200
292	84300	9800
293	66100	6400
294	14200	14900
295	74800	92500
296	55500	76500
297	66900	39300
298	5400	52700
299	200	5700
300	69400	67900
301	64100	88300
302	9800	51800
303	12300	56400
304	92000	86000
305	7700	50600
306	65600	1700
307	37700	64000
308	81900	87900
309	7600	9400
310	11700	36000
311	1000	61400
312	47400	84500
313	70200	6300
314	74100	23200
315	46000	79200
316	68900	90100
317	500	71800
318	61000	76500
319	67700	85100
320	69800	72500
321	57400	1300
322	8700	65000
323	66600	68700
324	500	19000
325	10300	53000
326	58200	47400
327	2600	14800
328	53900	90100
329	1500	15900
330	3200	100
331	15800	17300
332	57100	51600
333	65000	65800
334	16100	14000
335	49900	83400
336	57000	68200
337	13900	52500
338	57700	35600
339	17500	12100
340	69800	5400
341	56100	54700
342	55300	54600
343	67100	1000
344	50900	65000
DEMAND_SECTION
1	0
2	7
3	10
4	7
5	8
6	9
7	8
8	5
9	7
10	7
11	5
12	10
13	8
14	6
15	7
16	7
17	5
18	9
19	10
20	10
21	7
22	5
23	9
24	10
25	10
26	8
27	5
28	9
29	7
30	6
31	8
32	5
33	8
34	7
35	6
36	6
37	10
38	10
39	9
40	6
41	8
42	9
43	9
44	7
45	10
46	5
47	10
48	6
49	5
50	7
51	9
52	10
53	7
54	10
55	5
56	10
57	8
58	9
59	5
60	8
61	10
62	6
63	8
64	5
65	7
66	5
67	5
68	10
69	5
70	8
71	7
72	9
73	5
74	6
75	10
76	6
77	7
78	10
79	10
80	6
81	6
82	10
83	9
84	6
85	10
86	6
87	9
88	10
89	8
90	8
91	9
92	9
93	9
94	10
95	7
96	6
97	9
98	8
99	7
100	6
101	8
102	10
103	7
104	10
105	9
106	8
107	10
108	8
109	6
110	9
111	10
112	9
113	6
114	9
115	8
116	8
117	6
118	7
119	8
120	7
121	8
122	8
123	5
124	6
125	10
126	5
127	7
128	6
129	7
130	5
131	7
132	6
133	7
134	6
135	10
136	6
137	6
138	8
139	7
140	10
141	9
142	10
143	6
144	10
145	5
146	9
147	8
148	5
149	9
150	7
151	9
152	9
153	7
154	6
155	5
156	10
157	5
158	6
159	5
160	5
161	6
162	8
163	10
164	8
165	5
166	7
167	10
168	5
169	8
170	8
171	9
172	7
173	6
174	7
175	9
176	7
177	7
178	7
179	9
180	7
181	8
182	8
183	10
184	6
185	9
186	8
187	10
188	8
189	6
190	6
191	5
192	8
193	5
194	8
195	5
196	7
197	9
198	9
199	7
200	10
201	6
202	8
203	9
204	10
205	10
206	8
207	9
208	8
209	5
210	8
211	10
212	9
213	6
214	5
215	8
216	6
217	8
218	5
219	7
220	5
221	9
222	7
223	10
224	9
225	7
226	10
227	10
228	8
229	9
230	7
231	7
232	10
233	6
234	10
235	7
236	7
237	6
238	7
239	9
240	9
241	9
242	8
243	6
244	9
245	9
246	9
247	7
248	7
249	7
250	7
251	9
252	8
253	10
254	10
255	5
256	6
257	6
258	10
259	7
260	5
261	7
262	8
263	6
264	9
265	6
266	8
267	5
268	9
269	6
270	5
271	6
272	7
273	6
274	7
275	9
276	7
277	7
278	5
279	9
280	5
281	6
282	5
283	10
284	10
285	5
286	10
287	5
288	7
289	7
290	8
291	8
292	8
293	9
294	7
295	7
296	9
297	5
298	10
299	8
300	8
301	6
302	10
303	5
304	10
305	7
306	7
307	8
308	9
309	9
310	5
311	7
312	8
313	9
314	5
315	10
316	9
317	7
318	8
319	7
320	9
321	8
322	7
323	7
324	5
325	7
326	5
327	7
328	6
329	7
330	9
331	10
332	6
333	8
334	10
335	7
336	9
337	10
338	8
339	8
340	8
341	9
342	5
343	8
344	6
DEPOT_SECTION
1
-1
EOF
