experiment/data/lkh-res/Vrp-Set-X-n344/Vrp-Set-X-n344-lkh/0.lkh1.log
PARAMETER_FILE = baseline_results/cvrp_lkh/Vrp-Set-X-n344/Vrp-Set-X-n344-lkh/0.lkh1.par
Reading PROBLEM_FILE: "baseline_results/cvrp_lkh/Vrp-Set-X-n344/Vrp-Set-X-n344-lkh/0.lkh1.vrp" ... done
ASCENT_CANDIDATES = 50
BACKBONE_TRIALS = 0
BACKTRACKING = NO
# BWTSP =
# CANDIDATE_FILE =
CANDIDATE_SET_TYPE = ALPHA
# DISTANCE =
DEPOT = 1
# EDGE_FILE =
EXCESS = 0.00290698
EXTERNAL_SALESMEN = 0
EXTRA_CANDIDATES = 0 
EXTRA_CANDIDATE_SET_TYPE = QUADRANT
GAIN23 = NO
GAIN_CRITERION = YES
INITIAL_PERIOD = 172
INITIAL_STEP_SIZE = 1
INITIAL_TOUR_ALGORITHM = WALK
# INITIAL_TOUR_FILE = 
INITIAL_TOUR_FRACTION = 1.000
# INPUT_TOUR_FILE = 
KICK_TYPE = 4
KICKS = 1
# MAX_BREADTH =
MAKESPAN = NO
MAX_CANDIDATES = 5 
MAX_SWAPS = 0
MAX_TRIALS = 10000
# MERGE_TOUR_FILE =
MOVE_TYPE = 5 SPECIAL
MTSP_MIN_SIZE = 1
MTSP_MAX_SIZE = 343
# MTSP_SOLUTION_FILE = 
# NONSEQUENTIAL_MOVE_TYPE = 5
# OPTIMUM =
OUTPUT_TOUR_FILE = baseline_results/cvrp_lkh/Vrp-Set-X-n344/Vrp-Set-X-n344-lkh/0.lkh1.tour
PATCHING_A = 1 
PATCHING_C = 0 
# PI_FILE = 
POPMUSIC_INITIAL_TOUR = NO
POPMUSIC_MAX_NEIGHBORS = 5
POPMUSIC_SAMPLE_SIZE = 10
POPMUSIC_SOLUTIONS = 50
POPMUSIC_TRIALS = 1
POPULATION_SIZE = 10
PRECISION = 100
PROBLEM_FILE = baseline_results/cvrp_lkh/Vrp-Set-X-n344/Vrp-Set-X-n344-lkh/0.lkh1.vrp
RECOMBINATION = IPT
RESTRICTED_SEARCH = YES
RUNS = 1
SALESMEN = 43
SCALE = 1
SEED = 1234
# SINTEF_SOLUTION_FILE = 
STOP_AT_OPTIMUM = YES
SUBGRADIENT = YES
# SUBPROBLEM_SIZE =
# SUBPROBLEM_TOUR_FILE = 
SUBSEQUENT_MOVE_TYPE = 5 SPECIAL
SUBSEQUENT_PATCHING = YES
# TIME_LIMIT =
# TOTAL_TIME_LIMIT =
# TOUR_FILE = 
TRACE_LEVEL = 1
VEHICLES = 43

Lower bound = 2218087.4, Ascent time = 0.13 sec.
Cand.min = 5, Cand.avg = 5.0, Cand.max = 5
Preprocessing time = 0.13 sec.
* 1: Cost = 0_5057951, Time = 0.20 sec. 
Writing OUTPUT_TOUR_FILE: "baseline_results/cvrp_lkh/Vrp-Set-X-n344/Vrp-Set-X-n344-lkh/0.lkh1.tour" ... done
* 2: Cost = 0_5052328, Time = 0.20 sec. 
Writing OUTPUT_TOUR_FILE: "baseline_results/cvrp_lkh/Vrp-Set-X-n344/Vrp-Set-X-n344-lkh/0.lkh1.tour" ... done
* 5: Cost = 0_5037785, Time = 0.23 sec. 
Writing OUTPUT_TOUR_FILE: "baseline_results/cvrp_lkh/Vrp-Set-X-n344/Vrp-Set-X-n344-lkh/0.lkh1.tour" ... done
* 6: Cost = 0_5012614, Time = 0.33 sec. 
Writing OUTPUT_TOUR_FILE: "baseline_results/cvrp_lkh/Vrp-Set-X-n344/Vrp-Set-X-n344-lkh/0.lkh1.tour" ... done
* 7: Cost = 0_4883162, Time = 0.38 sec. 
Writing OUTPUT_TOUR_FILE: "baseline_results/cvrp_lkh/Vrp-Set-X-n344/Vrp-Set-X-n344-lkh/0.lkh1.tour" ... done
* 9: Cost = 0_4879937, Time = 0.40 sec. 
Writing OUTPUT_TOUR_FILE: "baseline_results/cvrp_lkh/Vrp-Set-X-n344/Vrp-Set-X-n344-lkh/0.lkh1.tour" ... done
* 15: Cost = 0_4877506, Time = 0.47 sec. 
Writing OUTPUT_TOUR_FILE: "baseline_results/cvrp_lkh/Vrp-Set-X-n344/Vrp-Set-X-n344-lkh/0.lkh1.tour" ... done
* 17: Cost = 0_4872311, Time = 0.48 sec. 
Writing OUTPUT_TOUR_FILE: "baseline_results/cvrp_lkh/Vrp-Set-X-n344/Vrp-Set-X-n344-lkh/0.lkh1.tour" ... done
* 18: Cost = 0_4849583, Time = 0.50 sec. 
Writing OUTPUT_TOUR_FILE: "baseline_results/cvrp_lkh/Vrp-Set-X-n344/Vrp-Set-X-n344-lkh/0.lkh1.tour" ... done
* 19: Cost = 0_4816521, Time = 0.52 sec. 
Writing OUTPUT_TOUR_FILE: "baseline_results/cvrp_lkh/Vrp-Set-X-n344/Vrp-Set-X-n344-lkh/0.lkh1.tour" ... done
* 21: Cost = 0_4808662, Time = 0.56 sec. 
Writing OUTPUT_TOUR_FILE: "baseline_results/cvrp_lkh/Vrp-Set-X-n344/Vrp-Set-X-n344-lkh/0.lkh1.tour" ... done
* 23: Cost = 0_4808207, Time = 0.56 sec. 
Writing OUTPUT_TOUR_FILE: "baseline_results/cvrp_lkh/Vrp-Set-X-n344/Vrp-Set-X-n344-lkh/0.lkh1.tour" ... done
* 25: Cost = 0_4765138, Time = 0.58 sec. 
Writing OUTPUT_TOUR_FILE: "baseline_results/cvrp_lkh/Vrp-Set-X-n344/Vrp-Set-X-n344-lkh/0.lkh1.tour" ... done
* 27: Cost = 0_4759909, Time = 0.66 sec. 
Writing OUTPUT_TOUR_FILE: "baseline_results/cvrp_lkh/Vrp-Set-X-n344/Vrp-Set-X-n344-lkh/0.lkh1.tour" ... done
* 31: Cost = 0_4753016, Time = 0.83 sec. 
Writing OUTPUT_TOUR_FILE: "baseline_results/cvrp_lkh/Vrp-Set-X-n344/Vrp-Set-X-n344-lkh/0.lkh1.tour" ... done
* 32: Cost = 0_4747990, Time = 0.84 sec. 
Writing OUTPUT_TOUR_FILE: "baseline_results/cvrp_lkh/Vrp-Set-X-n344/Vrp-Set-X-n344-lkh/0.lkh1.tour" ... done
* 37: Cost = 0_4744106, Time = 0.90 sec. 
Writing OUTPUT_TOUR_FILE: "baseline_results/cvrp_lkh/Vrp-Set-X-n344/Vrp-Set-X-n344-lkh/0.lkh1.tour" ... done
* 39: Cost = 0_4735955, Time = 0.96 sec. 
Writing OUTPUT_TOUR_FILE: "baseline_results/cvrp_lkh/Vrp-Set-X-n344/Vrp-Set-X-n344-lkh/0.lkh1.tour" ... done
* 46: Cost = 0_4734625, Time = 1.05 sec. 
Writing OUTPUT_TOUR_FILE: "baseline_results/cvrp_lkh/Vrp-Set-X-n344/Vrp-Set-X-n344-lkh/0.lkh1.tour" ... done
* 50: Cost = 0_4734485, Time = 1.06 sec. 
Writing OUTPUT_TOUR_FILE: "baseline_results/cvrp_lkh/Vrp-Set-X-n344/Vrp-Set-X-n344-lkh/0.lkh1.tour" ... done
* 52: Cost = 0_4714989, Time = 1.11 sec. 
Writing OUTPUT_TOUR_FILE: "baseline_results/cvrp_lkh/Vrp-Set-X-n344/Vrp-Set-X-n344-lkh/0.lkh1.tour" ... done
* 57: Cost = 0_4649119, Time = 1.20 sec. 
Writing OUTPUT_TOUR_FILE: "baseline_results/cvrp_lkh/Vrp-Set-X-n344/Vrp-Set-X-n344-lkh/0.lkh1.tour" ... done
* 58: Cost = 0_4630351, Time = 1.21 sec. 
Writing OUTPUT_TOUR_FILE: "baseline_results/cvrp_lkh/Vrp-Set-X-n344/Vrp-Set-X-n344-lkh/0.lkh1.tour" ... done
* 59: Cost = 0_4620371, Time = 1.22 sec. 
Writing OUTPUT_TOUR_FILE: "baseline_results/cvrp_lkh/Vrp-Set-X-n344/Vrp-Set-X-n344-lkh/0.lkh1.tour" ... done
* 60: Cost = 0_4609746, Time = 1.23 sec. 
Writing OUTPUT_TOUR_FILE: "baseline_results/cvrp_lkh/Vrp-Set-X-n344/Vrp-Set-X-n344-lkh/0.lkh1.tour" ... done
* 61: Cost = 0_4600398, Time = 1.24 sec. 
Writing OUTPUT_TOUR_FILE: "baseline_results/cvrp_lkh/Vrp-Set-X-n344/Vrp-Set-X-n344-lkh/0.lkh1.tour" ... done
* 62: Cost = 0_4586904, Time = 1.28 sec. 
Writing OUTPUT_TOUR_FILE: "baseline_results/cvrp_lkh/Vrp-Set-X-n344/Vrp-Set-X-n344-lkh/0.lkh1.tour" ... done
* 64: Cost = 0_4584590, Time = 1.40 sec. 
Writing OUTPUT_TOUR_FILE: "baseline_results/cvrp_lkh/Vrp-Set-X-n344/Vrp-Set-X-n344-lkh/0.lkh1.tour" ... done
* 67: Cost = 0_4581120, Time = 1.43 sec. 
Writing OUTPUT_TOUR_FILE: "baseline_results/cvrp_lkh/Vrp-Set-X-n344/Vrp-Set-X-n344-lkh/0.lkh1.tour" ... done
* 69: Cost = 0_4542131, Time = 1.44 sec. 
Writing OUTPUT_TOUR_FILE: "baseline_results/cvrp_lkh/Vrp-Set-X-n344/Vrp-Set-X-n344-lkh/0.lkh1.tour" ... done
* 72: Cost = 0_4540352, Time = 1.54 sec. 
Writing OUTPUT_TOUR_FILE: "baseline_results/cvrp_lkh/Vrp-Set-X-n344/Vrp-Set-X-n344-lkh/0.lkh1.tour" ... done
* 76: Cost = 0_4539391, Time = 1.59 sec. 
Writing OUTPUT_TOUR_FILE: "baseline_results/cvrp_lkh/Vrp-Set-X-n344/Vrp-Set-X-n344-lkh/0.lkh1.tour" ... done
* 84: Cost = 0_4531871, Time = 1.71 sec. 
Writing OUTPUT_TOUR_FILE: "baseline_results/cvrp_lkh/Vrp-Set-X-n344/Vrp-Set-X-n344-lkh/0.lkh1.tour" ... done
* 89: Cost = 0_4530760, Time = 1.82 sec. 
Writing OUTPUT_TOUR_FILE: "baseline_results/cvrp_lkh/Vrp-Set-X-n344/Vrp-Set-X-n344-lkh/0.lkh1.tour" ... done
* 94: Cost = 0_4530228, Time = 2.06 sec. 
Writing OUTPUT_TOUR_FILE: "baseline_results/cvrp_lkh/Vrp-Set-X-n344/Vrp-Set-X-n344-lkh/0.lkh1.tour" ... done
* 96: Cost = 0_4529115, Time = 2.15 sec. 
Writing OUTPUT_TOUR_FILE: "baseline_results/cvrp_lkh/Vrp-Set-X-n344/Vrp-Set-X-n344-lkh/0.lkh1.tour" ... done
* 102: Cost = 0_4518884, Time = 2.38 sec. 
Writing OUTPUT_TOUR_FILE: "baseline_results/cvrp_lkh/Vrp-Set-X-n344/Vrp-Set-X-n344-lkh/0.lkh1.tour" ... done
* 106: Cost = 0_4518386, Time = 2.41 sec. 
Writing OUTPUT_TOUR_FILE: "baseline_results/cvrp_lkh/Vrp-Set-X-n344/Vrp-Set-X-n344-lkh/0.lkh1.tour" ... done
* 115: Cost = 0_4507445, Time = 2.48 sec. 
Writing OUTPUT_TOUR_FILE: "baseline_results/cvrp_lkh/Vrp-Set-X-n344/Vrp-Set-X-n344-lkh/0.lkh1.tour" ... done
* 121: Cost = 0_4504670, Time = 2.53 sec. 
Writing OUTPUT_TOUR_FILE: "baseline_results/cvrp_lkh/Vrp-Set-X-n344/Vrp-Set-X-n344-lkh/0.lkh1.tour" ... done
* 122: Cost = 0_4498044, Time = 2.54 sec. 
Writing OUTPUT_TOUR_FILE: "baseline_results/cvrp_lkh/Vrp-Set-X-n344/Vrp-Set-X-n344-lkh/0.lkh1.tour" ... done
* 123: Cost = 0_4495422, Time = 2.55 sec. 
Writing OUTPUT_TOUR_FILE: "baseline_results/cvrp_lkh/Vrp-Set-X-n344/Vrp-Set-X-n344-lkh/0.lkh1.tour" ... done
* 125: Cost = 0_4493497, Time = 2.69 sec. 
Writing OUTPUT_TOUR_FILE: "baseline_results/cvrp_lkh/Vrp-Set-X-n344/Vrp-Set-X-n344-lkh/0.lkh1.tour" ... done
* 130: Cost = 0_4469016, Time = 2.77 sec. 
Writing OUTPUT_TOUR_FILE: "baseline_results/cvrp_lkh/Vrp-Set-X-n344/Vrp-Set-X-n344-lkh/0.lkh1.tour" ... done
* 132: Cost = 0_4446820, Time = 2.94 sec. 
Writing OUTPUT_TOUR_FILE: "baseline_results/cvrp_lkh/Vrp-Set-X-n344/Vrp-Set-X-n344-lkh/0.lkh1.tour" ... done
* 133: Cost = 0_4446808, Time = 2.95 sec. 
Writing OUTPUT_TOUR_FILE: "baseline_results/cvrp_lkh/Vrp-Set-X-n344/Vrp-Set-X-n344-lkh/0.lkh1.tour" ... done
* 141: Cost = 0_4438231, Time = 3.12 sec. 
Writing OUTPUT_TOUR_FILE: "baseline_results/cvrp_lkh/Vrp-Set-X-n344/Vrp-Set-X-n344-lkh/0.lkh1.tour" ... done
* 146: Cost = 0_4437278, Time = 3.17 sec. 
Writing OUTPUT_TOUR_FILE: "baseline_results/cvrp_lkh/Vrp-Set-X-n344/Vrp-Set-X-n344-lkh/0.lkh1.tour" ... done
* 147: Cost = 0_4436651, Time = 3.23 sec. 
Writing OUTPUT_TOUR_FILE: "baseline_results/cvrp_lkh/Vrp-Set-X-n344/Vrp-Set-X-n344-lkh/0.lkh1.tour" ... done
* 174: Cost = 0_4434407, Time = 3.77 sec. 
Writing OUTPUT_TOUR_FILE: "baseline_results/cvrp_lkh/Vrp-Set-X-n344/Vrp-Set-X-n344-lkh/0.lkh1.tour" ... done
* 183: Cost = 0_4432205, Time = 3.98 sec. 
Writing OUTPUT_TOUR_FILE: "baseline_results/cvrp_lkh/Vrp-Set-X-n344/Vrp-Set-X-n344-lkh/0.lkh1.tour" ... done
* 197: Cost = 0_4430598, Time = 4.31 sec. 
Writing OUTPUT_TOUR_FILE: "baseline_results/cvrp_lkh/Vrp-Set-X-n344/Vrp-Set-X-n344-lkh/0.lkh1.tour" ... done
* 205: Cost = 0_4430318, Time = 4.50 sec. 
Writing OUTPUT_TOUR_FILE: "baseline_results/cvrp_lkh/Vrp-Set-X-n344/Vrp-Set-X-n344-lkh/0.lkh1.tour" ... done
* 211: Cost = 0_4429879, Time = 4.71 sec. 
Writing OUTPUT_TOUR_FILE: "baseline_results/cvrp_lkh/Vrp-Set-X-n344/Vrp-Set-X-n344-lkh/0.lkh1.tour" ... done
* 225: Cost = 0_4429746, Time = 5.02 sec. 
Writing OUTPUT_TOUR_FILE: "baseline_results/cvrp_lkh/Vrp-Set-X-n344/Vrp-Set-X-n344-lkh/0.lkh1.tour" ... done
* 230: Cost = 0_4429034, Time = 5.10 sec. 
Writing OUTPUT_TOUR_FILE: "baseline_results/cvrp_lkh/Vrp-Set-X-n344/Vrp-Set-X-n344-lkh/0.lkh1.tour" ... done
* 236: Cost = 0_4403901, Time = 5.21 sec. 
Writing OUTPUT_TOUR_FILE: "baseline_results/cvrp_lkh/Vrp-Set-X-n344/Vrp-Set-X-n344-lkh/0.lkh1.tour" ... done
* 240: Cost = 0_4401653, Time = 5.25 sec. 
Writing OUTPUT_TOUR_FILE: "baseline_results/cvrp_lkh/Vrp-Set-X-n344/Vrp-Set-X-n344-lkh/0.lkh1.tour" ... done
* 247: Cost = 0_4398738, Time = 5.36 sec. 
Writing OUTPUT_TOUR_FILE: "baseline_results/cvrp_lkh/Vrp-Set-X-n344/Vrp-Set-X-n344-lkh/0.lkh1.tour" ... done
* 255: Cost = 0_4395081, Time = 5.46 sec. 
Writing OUTPUT_TOUR_FILE: "baseline_results/cvrp_lkh/Vrp-Set-X-n344/Vrp-Set-X-n344-lkh/0.lkh1.tour" ... done
* 262: Cost = 0_4394962, Time = 5.64 sec. 
Writing OUTPUT_TOUR_FILE: "baseline_results/cvrp_lkh/Vrp-Set-X-n344/Vrp-Set-X-n344-lkh/0.lkh1.tour" ... done
* 263: Cost = 0_4392532, Time = 5.66 sec. 
Writing OUTPUT_TOUR_FILE: "baseline_results/cvrp_lkh/Vrp-Set-X-n344/Vrp-Set-X-n344-lkh/0.lkh1.tour" ... done
* 264: Cost = 0_4390806, Time = 5.67 sec. 
Writing OUTPUT_TOUR_FILE: "baseline_results/cvrp_lkh/Vrp-Set-X-n344/Vrp-Set-X-n344-lkh/0.lkh1.tour" ... done
* 267: Cost = 0_4389007, Time = 5.68 sec. 
Writing OUTPUT_TOUR_FILE: "baseline_results/cvrp_lkh/Vrp-Set-X-n344/Vrp-Set-X-n344-lkh/0.lkh1.tour" ... done
* 273: Cost = 0_4387117, Time = 5.79 sec. 
Writing OUTPUT_TOUR_FILE: "baseline_results/cvrp_lkh/Vrp-Set-X-n344/Vrp-Set-X-n344-lkh/0.lkh1.tour" ... done
* 286: Cost = 0_4386074, Time = 6.19 sec. 
Writing OUTPUT_TOUR_FILE: "baseline_results/cvrp_lkh/Vrp-Set-X-n344/Vrp-Set-X-n344-lkh/0.lkh1.tour" ... done
* 304: Cost = 0_4385322, Time = 6.55 sec. 
Writing OUTPUT_TOUR_FILE: "baseline_results/cvrp_lkh/Vrp-Set-X-n344/Vrp-Set-X-n344-lkh/0.lkh1.tour" ... done
* 358: Cost = 0_4385210, Time = 7.22 sec. 
Writing OUTPUT_TOUR_FILE: "baseline_results/cvrp_lkh/Vrp-Set-X-n344/Vrp-Set-X-n344-lkh/0.lkh1.tour" ... done
* 364: Cost = 0_4384534, Time = 7.28 sec. 
Writing OUTPUT_TOUR_FILE: "baseline_results/cvrp_lkh/Vrp-Set-X-n344/Vrp-Set-X-n344-lkh/0.lkh1.tour" ... done
* 385: Cost = 0_4382756, Time = 7.55 sec. 
Writing OUTPUT_TOUR_FILE: "baseline_results/cvrp_lkh/Vrp-Set-X-n344/Vrp-Set-X-n344-lkh/0.lkh1.tour" ... done
* 418: Cost = 0_4382133, Time = 8.03 sec. 
Writing OUTPUT_TOUR_FILE: "baseline_results/cvrp_lkh/Vrp-Set-X-n344/Vrp-Set-X-n344-lkh/0.lkh1.tour" ... done
* 420: Cost = 0_4380884, Time = 8.04 sec. 
Writing OUTPUT_TOUR_FILE: "baseline_results/cvrp_lkh/Vrp-Set-X-n344/Vrp-Set-X-n344-lkh/0.lkh1.tour" ... done
* 433: Cost = 0_4377677, Time = 8.27 sec. 
Writing OUTPUT_TOUR_FILE: "baseline_results/cvrp_lkh/Vrp-Set-X-n344/Vrp-Set-X-n344-lkh/0.lkh1.tour" ... done
* 459: Cost = 0_4377413, Time = 8.66 sec. 
Writing OUTPUT_TOUR_FILE: "baseline_results/cvrp_lkh/Vrp-Set-X-n344/Vrp-Set-X-n344-lkh/0.lkh1.tour" ... done
* 464: Cost = 0_4373131, Time = 8.77 sec. 
Writing OUTPUT_TOUR_FILE: "baseline_results/cvrp_lkh/Vrp-Set-X-n344/Vrp-Set-X-n344-lkh/0.lkh1.tour" ... done
* 535: Cost = 0_4372711, Time = 9.88 sec. 
Writing OUTPUT_TOUR_FILE: "baseline_results/cvrp_lkh/Vrp-Set-X-n344/Vrp-Set-X-n344-lkh/0.lkh1.tour" ... done
* 538: Cost = 0_4371040, Time = 10.05 sec. 
Writing OUTPUT_TOUR_FILE: "baseline_results/cvrp_lkh/Vrp-Set-X-n344/Vrp-Set-X-n344-lkh/0.lkh1.tour" ... done
* 540: Cost = 0_4367351, Time = 10.07 sec. 
Writing OUTPUT_TOUR_FILE: "baseline_results/cvrp_lkh/Vrp-Set-X-n344/Vrp-Set-X-n344-lkh/0.lkh1.tour" ... done
* 551: Cost = 0_4362236, Time = 10.39 sec. 
Writing OUTPUT_TOUR_FILE: "baseline_results/cvrp_lkh/Vrp-Set-X-n344/Vrp-Set-X-n344-lkh/0.lkh1.tour" ... done
* 552: Cost = 0_4362038, Time = 10.42 sec. 
Writing OUTPUT_TOUR_FILE: "baseline_results/cvrp_lkh/Vrp-Set-X-n344/Vrp-Set-X-n344-lkh/0.lkh1.tour" ... done
* 559: Cost = 0_4362029, Time = 10.51 sec. 
Writing OUTPUT_TOUR_FILE: "baseline_results/cvrp_lkh/Vrp-Set-X-n344/Vrp-Set-X-n344-lkh/0.lkh1.tour" ... done
* 563: Cost = 0_4360555, Time = 10.63 sec. 
Writing OUTPUT_TOUR_FILE: "baseline_results/cvrp_lkh/Vrp-Set-X-n344/Vrp-Set-X-n344-lkh/0.lkh1.tour" ... done
* 573: Cost = 0_4354959, Time = 10.76 sec. 
Writing OUTPUT_TOUR_FILE: "baseline_results/cvrp_lkh/Vrp-Set-X-n344/Vrp-Set-X-n344-lkh/0.lkh1.tour" ... done
* 582: Cost = 0_4354809, Time = 10.91 sec. 
Writing OUTPUT_TOUR_FILE: "baseline_results/cvrp_lkh/Vrp-Set-X-n344/Vrp-Set-X-n344-lkh/0.lkh1.tour" ... done
* 699: Cost = 0_4352181, Time = 12.77 sec. 
Writing OUTPUT_TOUR_FILE: "baseline_results/cvrp_lkh/Vrp-Set-X-n344/Vrp-Set-X-n344-lkh/0.lkh1.tour" ... done
* 700: Cost = 0_4352072, Time = 12.77 sec. 
Writing OUTPUT_TOUR_FILE: "baseline_results/cvrp_lkh/Vrp-Set-X-n344/Vrp-Set-X-n344-lkh/0.lkh1.tour" ... done
* 725: Cost = 0_4347777, Time = 13.13 sec. 
Writing OUTPUT_TOUR_FILE: "baseline_results/cvrp_lkh/Vrp-Set-X-n344/Vrp-Set-X-n344-lkh/0.lkh1.tour" ... done
* 729: Cost = 0_4347037, Time = 13.17 sec. 
Writing OUTPUT_TOUR_FILE: "baseline_results/cvrp_lkh/Vrp-Set-X-n344/Vrp-Set-X-n344-lkh/0.lkh1.tour" ... done
* 757: Cost = 0_4346198, Time = 13.53 sec. 
Writing OUTPUT_TOUR_FILE: "baseline_results/cvrp_lkh/Vrp-Set-X-n344/Vrp-Set-X-n344-lkh/0.lkh1.tour" ... done
* 759: Cost = 0_4346078, Time = 13.58 sec. 
Writing OUTPUT_TOUR_FILE: "baseline_results/cvrp_lkh/Vrp-Set-X-n344/Vrp-Set-X-n344-lkh/0.lkh1.tour" ... done
* 762: Cost = 0_4345798, Time = 13.59 sec. 
Writing OUTPUT_TOUR_FILE: "baseline_results/cvrp_lkh/Vrp-Set-X-n344/Vrp-Set-X-n344-lkh/0.lkh1.tour" ... done
* 814: Cost = 0_4341435, Time = 14.44 sec. 
Writing OUTPUT_TOUR_FILE: "baseline_results/cvrp_lkh/Vrp-Set-X-n344/Vrp-Set-X-n344-lkh/0.lkh1.tour" ... done
* 844: Cost = 0_4340741, Time = 14.91 sec. 
Writing OUTPUT_TOUR_FILE: "baseline_results/cvrp_lkh/Vrp-Set-X-n344/Vrp-Set-X-n344-lkh/0.lkh1.tour" ... done
* 868: Cost = 0_4340306, Time = 15.12 sec. 
Writing OUTPUT_TOUR_FILE: "baseline_results/cvrp_lkh/Vrp-Set-X-n344/Vrp-Set-X-n344-lkh/0.lkh1.tour" ... done
* 887: Cost = 0_4339349, Time = 15.39 sec. 
Writing OUTPUT_TOUR_FILE: "baseline_results/cvrp_lkh/Vrp-Set-X-n344/Vrp-Set-X-n344-lkh/0.lkh1.tour" ... done
* 890: Cost = 0_4338375, Time = 15.41 sec. 
Writing OUTPUT_TOUR_FILE: "baseline_results/cvrp_lkh/Vrp-Set-X-n344/Vrp-Set-X-n344-lkh/0.lkh1.tour" ... done
* 930: Cost = 0_4334354, Time = 15.99 sec. 
Writing OUTPUT_TOUR_FILE: "baseline_results/cvrp_lkh/Vrp-Set-X-n344/Vrp-Set-X-n344-lkh/0.lkh1.tour" ... done
* 940: Cost = 0_4334107, Time = 16.13 sec. 
Writing OUTPUT_TOUR_FILE: "baseline_results/cvrp_lkh/Vrp-Set-X-n344/Vrp-Set-X-n344-lkh/0.lkh1.tour" ... done
* 980: Cost = 0_4333774, Time = 16.61 sec. 
Writing OUTPUT_TOUR_FILE: "baseline_results/cvrp_lkh/Vrp-Set-X-n344/Vrp-Set-X-n344-lkh/0.lkh1.tour" ... done
* 985: Cost = 0_4333053, Time = 16.71 sec. 
Writing OUTPUT_TOUR_FILE: "baseline_results/cvrp_lkh/Vrp-Set-X-n344/Vrp-Set-X-n344-lkh/0.lkh1.tour" ... done
* 997: Cost = 0_4332991, Time = 16.81 sec. 
Writing OUTPUT_TOUR_FILE: "baseline_results/cvrp_lkh/Vrp-Set-X-n344/Vrp-Set-X-n344-lkh/0.lkh1.tour" ... done
* 1074: Cost = 0_4320113, Time = 17.84 sec. 
Writing OUTPUT_TOUR_FILE: "baseline_results/cvrp_lkh/Vrp-Set-X-n344/Vrp-Set-X-n344-lkh/0.lkh1.tour" ... done
* 1321: Cost = 0_4320008, Time = 21.41 sec. 
Writing OUTPUT_TOUR_FILE: "baseline_results/cvrp_lkh/Vrp-Set-X-n344/Vrp-Set-X-n344-lkh/0.lkh1.tour" ... done
* 1366: Cost = 0_4319569, Time = 22.33 sec. 
Writing OUTPUT_TOUR_FILE: "baseline_results/cvrp_lkh/Vrp-Set-X-n344/Vrp-Set-X-n344-lkh/0.lkh1.tour" ... done
* 1451: Cost = 0_4318145, Time = 23.63 sec. 
Writing OUTPUT_TOUR_FILE: "baseline_results/cvrp_lkh/Vrp-Set-X-n344/Vrp-Set-X-n344-lkh/0.lkh1.tour" ... done
* 1803: Cost = 0_4318037, Time = 28.61 sec. 
Writing OUTPUT_TOUR_FILE: "baseline_results/cvrp_lkh/Vrp-Set-X-n344/Vrp-Set-X-n344-lkh/0.lkh1.tour" ... done
* 1868: Cost = 0_4313693, Time = 29.75 sec. 
Writing OUTPUT_TOUR_FILE: "baseline_results/cvrp_lkh/Vrp-Set-X-n344/Vrp-Set-X-n344-lkh/0.lkh1.tour" ... done
* 1960: Cost = 0_4312749, Time = 31.36 sec. 
Writing OUTPUT_TOUR_FILE: "baseline_results/cvrp_lkh/Vrp-Set-X-n344/Vrp-Set-X-n344-lkh/0.lkh1.tour" ... done
* 2082: Cost = 0_4302649, Time = 33.26 sec. 
Writing OUTPUT_TOUR_FILE: "baseline_results/cvrp_lkh/Vrp-Set-X-n344/Vrp-Set-X-n344-lkh/0.lkh1.tour" ... done
* 2100: Cost = 0_4302515, Time = 33.74 sec. 
Writing OUTPUT_TOUR_FILE: "baseline_results/cvrp_lkh/Vrp-Set-X-n344/Vrp-Set-X-n344-lkh/0.lkh1.tour" ... done
* 2126: Cost = 0_4301742, Time = 34.11 sec. 
Writing OUTPUT_TOUR_FILE: "baseline_results/cvrp_lkh/Vrp-Set-X-n344/Vrp-Set-X-n344-lkh/0.lkh1.tour" ... done
* 2272: Cost = 0_4301274, Time = 36.49 sec. 
Writing OUTPUT_TOUR_FILE: "baseline_results/cvrp_lkh/Vrp-Set-X-n344/Vrp-Set-X-n344-lkh/0.lkh1.tour" ... done
* 2281: Cost = 0_4301134, Time = 36.56 sec. 
Writing OUTPUT_TOUR_FILE: "baseline_results/cvrp_lkh/Vrp-Set-X-n344/Vrp-Set-X-n344-lkh/0.lkh1.tour" ... done
* 2286: Cost = 0_4300617, Time = 36.65 sec. 
Writing OUTPUT_TOUR_FILE: "baseline_results/cvrp_lkh/Vrp-Set-X-n344/Vrp-Set-X-n344-lkh/0.lkh1.tour" ... done
* 2428: Cost = 0_4299214, Time = 39.22 sec. 
Writing OUTPUT_TOUR_FILE: "baseline_results/cvrp_lkh/Vrp-Set-X-n344/Vrp-Set-X-n344-lkh/0.lkh1.tour" ... done
* 2445: Cost = 0_4299181, Time = 39.52 sec. 
Writing OUTPUT_TOUR_FILE: "baseline_results/cvrp_lkh/Vrp-Set-X-n344/Vrp-Set-X-n344-lkh/0.lkh1.tour" ... done
* 2514: Cost = 0_4297091, Time = 40.56 sec. 
Writing OUTPUT_TOUR_FILE: "baseline_results/cvrp_lkh/Vrp-Set-X-n344/Vrp-Set-X-n344-lkh/0.lkh1.tour" ... done
* 2527: Cost = 0_4294295, Time = 40.78 sec. 
Writing OUTPUT_TOUR_FILE: "baseline_results/cvrp_lkh/Vrp-Set-X-n344/Vrp-Set-X-n344-lkh/0.lkh1.tour" ... done
* 2529: Cost = 0_4291784, Time = 40.83 sec. 
Writing OUTPUT_TOUR_FILE: "baseline_results/cvrp_lkh/Vrp-Set-X-n344/Vrp-Set-X-n344-lkh/0.lkh1.tour" ... done
* 2607: Cost = 0_4291267, Time = 42.15 sec. 
Writing OUTPUT_TOUR_FILE: "baseline_results/cvrp_lkh/Vrp-Set-X-n344/Vrp-Set-X-n344-lkh/0.lkh1.tour" ... done
* 2625: Cost = 0_4290748, Time = 42.49 sec. 
Writing OUTPUT_TOUR_FILE: "baseline_results/cvrp_lkh/Vrp-Set-X-n344/Vrp-Set-X-n344-lkh/0.lkh1.tour" ... done
* 2661: Cost = 0_4289066, Time = 42.98 sec. 
Writing OUTPUT_TOUR_FILE: "baseline_results/cvrp_lkh/Vrp-Set-X-n344/Vrp-Set-X-n344-lkh/0.lkh1.tour" ... done
* 2662: Cost = 0_4287501, Time = 43.02 sec. 
Writing OUTPUT_TOUR_FILE: "baseline_results/cvrp_lkh/Vrp-Set-X-n344/Vrp-Set-X-n344-lkh/0.lkh1.tour" ... done
* 2678: Cost = 0_4286166, Time = 43.29 sec. 
Writing OUTPUT_TOUR_FILE: "baseline_results/cvrp_lkh/Vrp-Set-X-n344/Vrp-Set-X-n344-lkh/0.lkh1.tour" ... done
* 2686: Cost = 0_4285605, Time = 43.51 sec. 
Writing OUTPUT_TOUR_FILE: "baseline_results/cvrp_lkh/Vrp-Set-X-n344/Vrp-Set-X-n344-lkh/0.lkh1.tour" ... done
* 2699: Cost = 0_4284469, Time = 43.84 sec. 
Writing OUTPUT_TOUR_FILE: "baseline_results/cvrp_lkh/Vrp-Set-X-n344/Vrp-Set-X-n344-lkh/0.lkh1.tour" ... done
* 2711: Cost = 0_4283069, Time = 44.01 sec. 
Writing OUTPUT_TOUR_FILE: "baseline_results/cvrp_lkh/Vrp-Set-X-n344/Vrp-Set-X-n344-lkh/0.lkh1.tour" ... done
* 2745: Cost = 0_4281266, Time = 44.58 sec. 
Writing OUTPUT_TOUR_FILE: "baseline_results/cvrp_lkh/Vrp-Set-X-n344/Vrp-Set-X-n344-lkh/0.lkh1.tour" ... done
* 2773: Cost = 0_4280676, Time = 45.35 sec. 
Writing OUTPUT_TOUR_FILE: "baseline_results/cvrp_lkh/Vrp-Set-X-n344/Vrp-Set-X-n344-lkh/0.lkh1.tour" ... done
* 2967: Cost = 0_4280495, Time = 48.58 sec. 
Writing OUTPUT_TOUR_FILE: "baseline_results/cvrp_lkh/Vrp-Set-X-n344/Vrp-Set-X-n344-lkh/0.lkh1.tour" ... done
* 3151: Cost = 0_4280417, Time = 51.65 sec. 
Writing OUTPUT_TOUR_FILE: "baseline_results/cvrp_lkh/Vrp-Set-X-n344/Vrp-Set-X-n344-lkh/0.lkh1.tour" ... done
* 4628: Cost = 0_4280401, Time = 76.40 sec. 
Writing OUTPUT_TOUR_FILE: "baseline_results/cvrp_lkh/Vrp-Set-X-n344/Vrp-Set-X-n344-lkh/0.lkh1.tour" ... done
* 4639: Cost = 0_4280242, Time = 76.60 sec. 
Writing OUTPUT_TOUR_FILE: "baseline_results/cvrp_lkh/Vrp-Set-X-n344/Vrp-Set-X-n344-lkh/0.lkh1.tour" ... done
* 4960: Cost = 0_4280015, Time = 83.10 sec. 
Writing OUTPUT_TOUR_FILE: "baseline_results/cvrp_lkh/Vrp-Set-X-n344/Vrp-Set-X-n344-lkh/0.lkh1.tour" ... done
* 5740: Cost = 0_4279881, Time = 96.88 sec. 
Writing OUTPUT_TOUR_FILE: "baseline_results/cvrp_lkh/Vrp-Set-X-n344/Vrp-Set-X-n344-lkh/0.lkh1.tour" ... done
* 5767: Cost = 0_4278868, Time = 97.38 sec. 
Writing OUTPUT_TOUR_FILE: "baseline_results/cvrp_lkh/Vrp-Set-X-n344/Vrp-Set-X-n344-lkh/0.lkh1.tour" ... done
* 6108: Cost = 0_4278817, Time = 102.78 sec. 
Writing OUTPUT_TOUR_FILE: "baseline_results/cvrp_lkh/Vrp-Set-X-n344/Vrp-Set-X-n344-lkh/0.lkh1.tour" ... done
* 6172: Cost = 0_4278794, Time = 104.14 sec. 
Writing OUTPUT_TOUR_FILE: "baseline_results/cvrp_lkh/Vrp-Set-X-n344/Vrp-Set-X-n344-lkh/0.lkh1.tour" ... done
Population:
  1: 0_4278794
Run 1: Cost = 0_4278794, Time = 169.58 sec. 

Successes/Runs = 0/1 
Cost.min = 4278794, Cost.avg = 4278794.00, Cost.max = 4278794
Gap.min = 0.0000%, Gap.avg = 0.0000%, Gap.max = 0.0000%
Penalty.min = 0, Penalty.avg = 0.00, Penalty.max = 0
Trials.min = 10000, Trials.avg = 10000.0, Trials.max = 10000
Time.min = 169.58 sec., Time.avg = 169.58 sec., Time.max = 169.58 sec.
Time.total = 169.72 sec.
  Size.min = 7, Size.max = 9, Penalty = 0
  Cost.min = 25665, Cost.max = 152288, Cost.sum = 4278794
Best CVRP solution:
  Cost = 0_4278794

