experiment/data/lkh-res/Vrp-Set-X-n344/Vrp-Set-X-n344-lkh/0.lkh1.tour
NAME : 0.4278794.tour
COMMENT : Length = 4278794
COMMENT : Found by LKH-3 [Keld Helsgaun] Tue Apr  9 07:10:41 2024
TYPE : TOUR
DIMENSION : 386
TOUR_SECTION
1
7
3
254
96
24
59
168
21
376
32
263
240
69
290
318
204
336
360
258
249
269
238
129
89
300
333
379
36
250
88
118
127
132
265
85
377
221
39
154
134
70
100
55
181
355
173
138
164
160
4
61
35
253
356
5
292
95
136
261
313
293
153
370
78
151
232
145
150
66
40
251
359
76
158
10
107
2
111
77
338
375
17
291
195
252
222
260
174
256
223
362
62
26
113
310
42
247
16
73
186
371
274
192
328
121
30
92
220
180
218
385
200
284
128
208
65
37
140
382
83
322
317
311
64
288
257
303
9
372
169
215
139
233
266
34
176
337
369
308
237
86
110
98
171
304
354
79
141
184
280
117
321
224
262
364
114
268
122
198
323
137
123
188
365
205
183
278
166
193
47
11
72
380
108
58
20
227
226
307
161
384
229
245
279
82
15
286
159
358
207
296
179
243
335
259
282
264
381
44
124
33
41
45
131
210
143
361
271
277
135
319
281
178
197
320
352
60
152
52
50
157
38
8
189
348
340
177
199
343
306
289
231
125
386
275
324
329
327
170
147
187
272
366
6
99
115
165
109
102
19
273
368
190
283
228
312
194
315
216
285
367
25
94
334
339
148
144
119
363
103
106
29
87
57
104
267
53
349
214
239
56
28
314
46
12
242
378
75
51
49
126
236
54
149
255
383
316
81
91
162
270
43
84
23
353
196
133
182
248
201
246
294
331
373
68
22
120
18
63
101
155
93
350
230
112
344
67
80
202
97
191
213
346
309
299
217
330
175
244
71
347
209
13
146
105
297
172
27
116
326
357
185
241
295
142
234
301
211
345
302
305
225
130
298
235
325
31
374
74
48
90
163
14
287
167
156
351
212
332
219
203
206
341
342
276
-1
EOF
